experiment/data/hgs-res/Vrp-Set-P-n76/Vrp-Set-P-n76-hgs/1.hgs1.tour
Route #1: 6 33 63 1 73 62 22 64 42 43 41 56 23 24 49 16 51
Route #2: 68 2 74 28 61 21 69 71 60 70 20 37 36 47 48 30
Route #3: 75 4 52 27 45 29 5 15 57 13 54 19 8 46 34
Route #4: 26 58 38 65 66 11 59 14 53 35 7 67
Route #5: 12 40 9 39 72 10 31 25 55 18 50 32 44 3 17
Cost 633.317
